language ESSENCE' 1.0
$ minion Nodes: 17
$ minion TotalTime: 0.001901
$ Savile Row TotalTime: 1.136
letting s_SetExplicitVarSize_tuple1 be [true, false, false, false, false;int(1..5)]
letting s_SetExplicitVarSize_tuple2_SetOccurrence be [[false, false, false, true, true;int(1..5)], 
[false, false, false, true, true;int(1..5)], 
[false, false, false, true, true;int(1..5)], 
[false, false, false, true, true;int(1..5)], 
[false, false, false, true, true;int(1..5)];int(1..5)]
